<instance format="XCSP3" type="CSP">
  <variables>
    <var id="x0"> 6 10 16 </var>
    <var id="x1"> 6 15..17 </var>
    <var id="x2"> 4 16 17 </var>
    <var id="x3"> 4 6 16 </var>
    <var id="x4"> 2 4 13 15 </var>
    <var id="x5"> 4 6 13 </var>
    <var id="x6"> 4 10 13 15 17 </var>
    <var id="x7"> 4 6 10 16 17 </var>
    <var id="x8"> 8 13 15 </var>
    <var id="x9"> 6 10 12 15 </var>
    <var id="x10"> 6 8 13 14 </var>
    <var id="x11"> 8 13 15 </var>
    <var id="x12"> 10 13..15 </var>
    <var id="x13"> 15 </var>
    <var id="x14"> 6 10 12 </var>
    <var id="x15"> 6 8 10 </var>
    <var id="x16"> 4 8 9 14 17 </var>
    <var id="x17"> 4 8 9 17 </var>
    <var id="x18"> 4 6 9 10 </var>
    <var id="x19"> 1 4 6 8 14 </var>
    <var id="x20"> 1 14 17 </var>
    <var id="x21"> 1 4 9 </var>
    <var id="x22"> 4 6 9 10 17 </var>
    <var id="x23"> 14..16 </var>
    <var id="x24"> 0 9 14 16 </var>
    <var id="x25"> 1 3 9 11 16 </var>
    <var id="x26"> 1 11 15 </var>
    <var id="x27"> 0 9 11 15 </var>
    <var id="x28"> 1 3 11 15 </var>
    <var id="x29"> 1 3 14 15 </var>
    <var id="x30"> 0 1 9 11 15 </var>
    <var id="x31"> 2 5 </var>
    <var id="x32"> 5 16 </var>
    <var id="x33"> 1 4 9 11 12 16 </var>
    <var id="x34"> 1 2 4 </var>
    <var id="x35"> 1 4 9 12 </var>
    <var id="x36"> 1 5 11 16 </var>
    <var id="x37"> 4 9 11 </var>
    <var id="x38"> 1 2 4 5 9 11 </var>
    <var id="x39"> 8 16 17 </var>
    <var id="x40"> 4 8 9 16 17 </var>
    <var id="x41"> 1 3 4 9 16 </var>
    <var id="x42"> 1 4 8 </var>
    <var id="x43"> 1 4 9 </var>
    <var id="x44"> 1 16 17 </var>
    <var id="x45"> 1 2 4 9 </var>
    <var id="x46"> 4 9 16 17 </var>
    <var id="x47"> 3 5 15 </var>
    <var id="x48"> 0 3 </var>
    <var id="x49"> 3 4 9 15 </var>
    <var id="x50"> 0 4 12 15 </var>
    <var id="x51"> 3 7 15 </var>
    <var id="x52"> 0 4 7 9 12 15 </var>
    <var id="x53"> 5 </var>
    <var id="x54"> 0 4 5 9 15 </var>
    <var id="x55"> 5 8 10 </var>
    <var id="x56"> 4 8 12 13 </var>
    <var id="x57"> 4 10 12 </var>
    <var id="x58"> 8 13 </var>
    <var id="x59"> 4 8 10 </var>
    <var id="x60"> 5 8 10 13 16 </var>
    <var id="x61"> 4 10 13 </var>
    <var id="x62"> 6 14 16 </var>
    <var id="x63"> 6 7 14..16 </var>
    <var id="x64"> 4 9 14 16 </var>
    <var id="x65"> 1 4 14 15 </var>
    <var id="x66"> 1 4 15 </var>
    <var id="x67"> 4 6 9 15 </var>
    <var id="x68"> 6 14 16 </var>
    <var id="x69"> 1 4 9 15 </var>
    <var id="x70"> 0 3 6 8 14 </var>
    <var id="x71"> 5 6 8 14 </var>
    <var id="x72"> 1 3 4 6 </var>
    <var id="x73"> 1 4 8 </var>
    <var id="x74"> 0 1 4 6 8 14 </var>
    <var id="x75"> 1 3 4 8 14 </var>
    <var id="x76"> 4 14 </var>
    <var id="x77"> 0 4 6 </var>
    <var id="x78"> 0 10 11 14 </var>
    <var id="x79"> 0 12 14 </var>
    <var id="x80"> 13 15 </var>
    <var id="x81"> 2 11..13 15 </var>
    <var id="x82"> 2 11 13 15 </var>
    <var id="x83"> 0 12 13 15 </var>
    <var id="x84"> 11 13 14 </var>
    <var id="x85"> 10 11 13..15 </var>
    <var id="x86"> 6 8 10 15 </var>
    <var id="x87"> 6 8 10 </var>
    <var id="x88"> 6..8 15 17 </var>
    <var id="x89"> 6 9 </var>
    <var id="x90"> 6..8 13 </var>
    <var id="x91"> 6 8 10 13 </var>
    <var id="x92"> 7 13 17 </var>
    <var id="x93"> 6 9 10 17 </var>
    <var id="x94"> 6 8 </var>
    <var id="x95"> 4 8 17 </var>
    <var id="x96"> 4 6 11 </var>
    <var id="x97"> 1 7 8 11 </var>
    <var id="x98"> 1 4 8 14 </var>
    <var id="x99"> 1 4 7 </var>
    <var id="x100"> 1 7 11 14 17 </var>
    <var id="x101"> 4 11 14 17 </var>
    <var id="x102"> 0 12 14 16 </var>
    <var id="x103"> 0 12 14 15 </var>
    <var id="x104"> 2 7 15 </var>
    <var id="x105"> 2 14 15 </var>
    <var id="x106"> 0 7 12 15 </var>
    <var id="x107"> 7 14 16 </var>
    <var id="x108"> 0 12 16 </var>
    <var id="x109"> 0 11 </var>
    <var id="x110"> 4 9 13 15 17 </var>
    <var id="x111"> 0 4 15 17 </var>
    <var id="x112"> 4 11 13 15 </var>
    <var id="x113"> 0 4 9 11 15 </var>
    <var id="x114"> 4 15 </var>
    <var id="x115"> 4 9 11 13 15 17 </var>
    <var id="x116"> 0 4 5 9 11 15 </var>
    <var id="x117"> 6 8 14 17 </var>
    <var id="x118"> 1 3 6 11 </var>
    <var id="x119"> 3 8 17 </var>
    <var id="x120"> 0 1 14 17 </var>
    <var id="x121"> 0 6 11 </var>
    <var id="x122"> 0 1 6 8 14 </var>
    <var id="x123"> 0 1 </var>
    <var id="x124"> 6 8 14 </var>
    <var id="x125"> 8 15 </var>
    <var id="x126"> 0 8 11 </var>
    <var id="x127"> 0 1 4 12 15 </var>
    <var id="x128"> 0 1 4 8 13 </var>
    <var id="x129"> 1 8 11 13 15 </var>
    <var id="x130"> 8 13 </var>
    <var id="x131"> 1 11 13 </var>
    <var id="x132"> 0 4 12 </var>
    <var id="x133"> 4 8 16 </var>
    <var id="x134"> 3 4 11 16 </var>
    <var id="x135"> 3 4 8 13 15 16 </var>
    <var id="x136"> 4 15 </var>
    <var id="x137"> 4 8 11 13 15 </var>
    <var id="x138"> 3 4 8 10 15 </var>
    <var id="x139"> 4 13 15 </var>
    <var id="x140"> 8 10 13 16 </var>
  </variables>
  <constraints>
    <group>
      <allDifferent> %... </allDifferent>
      <args> x0 x1 x2 x3 x4 x5 x6 x7 </args>
      <args> x8 x9 x10 x11 x12 x13 x14 </args>
      <args> x15 x16 x17 x18 x19 x20 x21 x22 </args>
      <args> x23 x24 x25 x26 x27 x28 x29 x30 </args>
      <args> x31 x32 x33 x34 x35 x36 x37 x38 </args>
      <args> x39 x40 x41 x42 x43 x44 x45 x46 </args>
      <args> x47 x48 x49 x50 x51 x52 x53 x54 </args>
      <args> x55 x56 x57 x58 x59 x60 x61 </args>
      <args> x62 x63 x64 x65 x66 x67 x68 x69 </args>
      <args> x70 x71 x72 x73 x74 x75 x76 x77 </args>
      <args> x78 x79 x80 x81 x82 x83 x84 x85 </args>
      <args> x86 x87 x88 x89 x90 x91 x92 x93 </args>
      <args> x94 x95 x96 x97 x98 x99 x100 x101 </args>
      <args> x102 x103 x104 x105 x106 x107 x108 </args>
      <args> x109 x110 x111 x112 x113 x114 x115 x116 </args>
      <args> x117 x118 x119 x120 x121 x122 x123 x124 </args>
      <args> x125 x126 x127 x128 x129 x130 x131 x132 </args>
      <args> x133 x134 x135 x136 x137 x138 x139 x140 </args>
      <args> x15 x31 x47 x55 x86 x94 x125 </args>
      <args> x0 x48 x62 x70 x78 x87 x109 x126 </args>
      <args> x1 x23 x32 x39 x63 x71 x88 x117 </args>
      <args> x2 x16 x24 x40 x64 x79 x102 x133 </args>
      <args> x3 x25 x33 x41 x72 x89 x118 x134 </args>
      <args> x8 x17 x49 x80 x95 x110 x119 x135 </args>
      <args> x50 x65 x103 x111 x120 x127 x136 </args>
      <args> x4 x26 x56 x66 x73 x81 x112 x137 </args>
      <args> x9 x18 x27 x57 x67 x96 x113 x121 </args>
      <args> x5 x10 x19 x42 x74 x90 x122 x128 </args>
      <args> x11 x28 x51 x58 x82 x97 x104 x129 </args>
      <args> x29 x34 x59 x75 x98 x105 x114 x138 </args>
      <args> x35 x43 x52 x83 x99 x106 x123 x139 </args>
      <args> x53 x60 x68 x91 x124 x130 x140 </args>
      <args> x20 x36 x44 x84 x92 x100 x107 x131 </args>
      <args> x6 x12 x37 x61 x76 x85 x101 x115 </args>
      <args> x13 x21 x30 x38 x45 x54 x69 x116 </args>
      <args> x7 x14 x22 x46 x77 x93 x108 x132 </args>
    </group>
  </constraints>
</instance>

